p cnf 50 50
32 33 43 0
6 -25 3 0
-22 16 -37 0
2 -16 50 0
-49 13 -33 0
33 -45 -44 0
-49 6 -37 0
11 -38 15 0
-5 49 11 0
-37 47 -20 0
-47 -40 24 0
2 23 -11 0
-21 -40 26 0
43 10 -23 0
14 -6 38 0
-49 46 37 0
18 15 39 0
17 7 -2 0
20 -34 42 0
5 18 14 0
38 -41 35 0
-49 4 43 0
12 4 43 0
-48 20 19 0
29 25 3 0
-23 40 44 0
34 -28 -31 0
-34 -27 8 0
38 31 -29 0
3 -7 -15 0
-31 -17 3 0
19 -32 37 0
-48 47 7 0
-32 -25 36 0
-39 -19 -24 0
26 39 -14 0
45 22 6 0
-48 -17 25 0
48 -50 21 0
45 -8 36 0
-36 -40 -15 0
14 -25 26 0
50 31 -29 0
31 -25 -49 0
-2 -27 -25 0
-49 -20 47 0
22 48 -30 0
44 16 -8 0
-20 -27 31 0
42 -22 -37 0
